robust/generate/spp_dkp_Lefebvre_et_al_2026/src/shortest_path_3_5.lp
\ Model sp_3_5
\ LP format - for model browsing. Use MPS format to capture full model detail.
\ Signature: 0xa4415f961933896d
Minimize
  62.8 y[0,1] + 66.29 y[0,2] + 62.8 y[1,0] + 4.24 y[1,2] + 66.29 y[2,0]
   + 4.24 y[2,1] + 6.28 r[0,1] + 6.629 r[0,2] + 6.28 r[1,0] + 0.424 r[1,2]
   + 6.629 r[2,0] + 0.424 r[2,1]
Subject To
 flow_cons_inner_nodes[1]: y[0,1] - y[1,0] - y[1,2] + y[2,1] = 0
 flow_cons_source: y[0,1] + y[0,2] - y[1,0] - y[2,0] = 1
 flow_cons_target: y[0,2] + y[1,2] - y[2,0] - y[2,1] = 1
 primal_lower: - 1.76 y[0,1] - 15.1 y[0,2] - 11.3 y[1,0] - 5.45 y[1,2]
   - 10.97 y[2,0] - 12.39 y[2,1] + 32 u[0,1] + 49 u[0,2] + 89 u[1,0]
   + 93 u[1,2] + 55 u[2,0] + 67 u[2,1] <= 93
 mccormick1[0,1]: - u[0,1] + r[0,1] <= 0
 mccormick1[0,2]: - u[0,2] + r[0,2] <= 0
 mccormick1[1,0]: - u[1,0] + r[1,0] <= 0
 mccormick1[1,2]: - u[1,2] + r[1,2] <= 0
 mccormick1[2,0]: - u[2,0] + r[2,0] <= 0
 mccormick1[2,1]: - u[2,1] + r[2,1] <= 0
 mccormick2[0,1]: - y[0,1] + r[0,1] <= 0
 mccormick2[0,2]: - y[0,2] + r[0,2] <= 0
 mccormick2[1,0]: - y[1,0] + r[1,0] <= 0
 mccormick2[1,2]: - y[1,2] + r[1,2] <= 0
 mccormick2[2,0]: - y[2,0] + r[2,0] <= 0
 mccormick2[2,1]: - y[2,1] + r[2,1] <= 0
 mccormick3[0,1]: - y[0,1] - u[0,1] + r[0,1] >= -1
 mccormick3[0,2]: - y[0,2] - u[0,2] + r[0,2] >= -1
 mccormick3[1,0]: - y[1,0] - u[1,0] + r[1,0] >= -1
 mccormick3[1,2]: - y[1,2] - u[1,2] + r[1,2] >= -1
 mccormick3[2,0]: - y[2,0] - u[2,0] + r[2,0] >= -1
 mccormick3[2,1]: - y[2,1] - u[2,1] + r[2,1] >= -1
Bounds
Binaries
 y[0,1] y[0,2] y[1,0] y[1,2] y[2,0] y[2,1] u[0,1] u[0,2] u[1,0] u[1,2]
 u[2,0] u[2,1] r[0,1] r[0,2] r[1,0] r[1,2] r[2,0] r[2,1]
End
