robust/generate/spp_dkp_Lefebvre_et_al_2026/src/shortest_path_3_5.kp
47
93

[1.76 15.1 11.3 5.45 10.97 12.39]

[32 49 89 93 55 67]
